0 73.0
1 78.0
2 71.0
3 73.0
4 86.0
5 83.0
6 73.0
7 88.0
8 81.0
9 84.0
10 86.0
11 74.0
12 71.0
13 81.0
14 81.0
15 82.0
16 83.0
17 74.0
18 97.0
19 92.0
20 87.0
21 83.0
22 84.0
23 85.0
24 72.0
25 77.0
26 70.0
27 72.0
28 86.0
29 83.0
30 72.0
31 88.0
32 81.0
33 87.0
34 86.0
35 76.0
36 70.0
37 81.0
38 81.0
39 85.0
40 83.0
41 76.0
42 96.0
43 91.0
44 85.0
45 84.0
46 82.0
47 86.0
48 68.0
49 83.0
50 76.0
51 79.0
52 92.0
53 80.0
54 68.0
55 84.0
56 77.0
57 83.0
58 92.0
59 82.0
60 76.0
61 88.0
62 77.0
63 91.0
64 80.0
65 82.0
66 82.0
67 78.0
68 81.0
69 80.0
70 69.0
71 72.0
72 71.0
73 81.0
74 81.0
75 82.0
76 92.0
77 83.0
78 71.0
79 82.0
80 82.0
81 86.0
82 92.0
83 85.0
84 81.0
85 93.0
86 82.0
87 96.0
88 83.0
89 85.0
90 84.0
91 85.0
92 83.0
93 87.0
94 74.0
95 77.0
96 91.0
97 86.0
98 91.0
99 87.0
100 86.0
101 87.0
102 90.0
103 85.0
104 90.0
105 89.0
106 85.0
107 89.0
108 80.0
109 76.0
110 80.0
111 79.0
112 76.0
113 79.0
114 77.0
115 78.0
116 77.0
117 81.0
118 78.0
119 81.0
120 67.0
121 72.0
122 65.0
123 67.0
124 80.0
125 77.0
126 63.0
127 78.0
128 71.0
129 74.0
130 76.0
131 64.0
132 66.0
133 76.0
134 76.0
135 77.0
136 78.0
137 69.0
138 85.0
139 80.0
140 75.0
141 71.0
142 72.0
143 73.0
144 62.0
145 67.0
146 65.0
147 67.0
148 74.0
149 71.0
150 63.0
151 72.0
152 70.0
153 70.0
154 75.0
155 66.0
156 61.0
157 70.0
158 65.0
159 68.0
160 67.0
161 61.0
162 80.0
163 80.0
164 76.0
165 74.0
166 73.0
167 71.0
168 62.0
169 77.0
170 71.0
171 74.0
172 80.0
173 68.0
174 67.0
175 76.0
176 70.0
177 70.0
178 85.0
179 76.0
180 75.0
181 81.0
182 69.0
183 78.0
184 72.0
185 75.0
186 74.0
187 71.0
188 80.0
189 74.0
190 68.0
191 65.0
192 65.0
193 75.0
194 71.0
195 72.0
196 80.0
197 71.0
198 60.0
199 69.0
200 65.0
201 68.0
202 75.0
203 69.0
204 70.0
205 76.0
206 69.0
207 78.0
208 70.0
209 73.0
210 71.0
211 68.0
212 72.0
213 71.0
214 63.0
215 65.0
216 85.0
217 80.0
218 81.0
219 77.0
220 81.0
221 82.0
222 86.0
223 86.0
224 87.0
225 85.0
226 82.0
227 80.0
228 76.0
229 73.0
230 81.0
231 75.0
232 77.0
233 74.0
234 78.0
235 75.0
236 73.0
237 72.0
238 74.0
239 76.0
240 64.0
241 69.0
242 62.0
243 64.0
244 78.0
245 75.0
246 59.0
247 75.0
248 68.0
249 74.0
250 73.0
251 63.0
252 62.0
253 73.0
254 73.0
255 77.0
256 75.0
257 68.0
258 82.0
259 77.0
260 71.0
261 70.0
262 68.0
263 72.0
264 60.0
265 65.0
266 63.0
267 65.0
268 72.0
269 69.0
270 60.0
271 69.0
272 67.0
273 67.0
274 72.0
275 63.0
276 58.0
277 67.0
278 62.0
279 65.0
280 64.0
281 58.0
282 78.0
283 78.0
284 74.0
285 72.0
286 71.0
287 69.0
288 60.0
289 76.0
290 69.0
291 75.0
292 78.0
293 68.0
294 65.0
295 74.0
296 67.0
297 67.0
298 83.0
299 74.0
300 74.0
301 82.0
302 67.0
303 76.0
304 73.0
305 74.0
306 72.0
307 71.0
308 79.0
309 72.0
310 69.0
311 63.0
312 63.0
313 74.0
314 69.0
315 73.0
316 78.0
317 71.0
318 58.0
319 67.0
320 62.0
321 65.0
322 73.0
323 67.0
324 69.0
325 77.0
326 67.0
327 76.0
328 71.0
329 72.0
330 69.0
331 68.0
332 71.0
333 69.0
334 64.0
335 63.0
336 82.0
337 77.0
338 77.0
339 76.0
340 77.0
341 81.0
342 84.0
343 84.0
344 84.0
345 82.0
346 79.0
347 77.0
348 73.0
349 72.0
350 78.0
351 71.0
352 77.0
353 71.0
354 75.0
355 74.0
356 70.0
357 68.0
358 74.0
359 73.0
360 60.0
361 75.0
362 68.0
363 71.0
364 84.0
365 72.0
366 59.0
367 75.0
368 68.0
369 74.0
370 83.0
371 73.0
372 68.0
373 80.0
374 69.0
375 83.0
376 72.0
377 74.0
378 78.0
379 74.0
380 77.0
381 76.0
382 65.0
383 68.0
384 64.0
385 79.0
386 73.0
387 76.0
388 82.0
389 70.0
390 64.0
391 73.0
392 67.0
393 67.0
394 82.0
395 73.0
396 72.0
397 78.0
398 66.0
399 75.0
400 69.0
401 72.0
402 82.0
403 79.0
404 88.0
405 82.0
406 76.0
407 73.0
408 64.0
409 80.0
410 73.0
411 79.0
412 82.0
413 72.0
414 65.0
415 74.0
416 67.0
417 67.0
418 83.0
419 74.0
420 74.0
421 82.0
422 67.0
423 76.0
424 73.0
425 74.0
426 82.0
427 81.0
428 89.0
429 82.0
430 79.0
431 73.0
432 73.0
433 85.0
434 73.0
435 87.0
436 79.0
437 81.0
438 72.0
439 78.0
440 66.0
441 75.0
442 78.0
443 81.0
444 73.0
445 81.0
446 67.0
447 76.0
448 81.0
449 82.0
450 70.0
451 72.0
452 76.0
453 73.0
454 78.0
455 73.0
456 72.0
457 68.0
458 71.0
459 70.0
460 68.0
461 71.0
462 78.0
463 75.0
464 78.0
465 72.0
466 74.0
467 71.0
468 77.0
469 76.0
470 78.0
471 71.0
472 77.0
473 71.0
474 66.0
475 68.0
476 65.0
477 62.0
478 68.0
479 63.0
480 62.0
481 72.0
482 72.0
483 73.0
484 83.0
485 74.0
486 61.0
487 72.0
488 72.0
489 76.0
490 82.0
491 75.0
492 67.0
493 79.0
494 68.0
495 82.0
496 69.0
497 71.0
498 77.0
499 78.0
500 76.0
501 80.0
502 67.0
503 70.0
504 61.0
505 71.0
506 67.0
507 68.0
508 76.0
509 67.0
510 56.0
511 65.0
512 61.0
513 64.0
514 71.0
515 65.0
516 66.0
517 72.0
518 65.0
519 74.0
520 66.0
521 69.0
522 76.0
523 73.0
524 77.0
525 76.0
526 68.0
527 70.0
528 61.0
529 72.0
530 67.0
531 71.0
532 76.0
533 69.0
534 57.0
535 66.0
536 61.0
537 64.0
538 72.0
539 66.0
540 68.0
541 76.0
542 66.0
543 75.0
544 70.0
545 71.0
546 76.0
547 75.0
548 78.0
549 76.0
550 71.0
551 70.0
552 67.0
553 79.0
554 67.0
555 81.0
556 73.0
557 75.0
558 71.0
559 77.0
560 65.0
561 74.0
562 77.0
563 80.0
564 72.0
565 80.0
566 66.0
567 75.0
568 80.0
569 81.0
570 67.0
571 69.0
572 73.0
573 70.0
574 75.0
575 70.0
576 68.0
577 69.0
578 67.0
579 71.0
580 64.0
581 67.0
582 74.0
583 71.0
584 69.0
585 68.0
586 70.0
587 72.0
588 73.0
589 72.0
590 69.0
591 67.0
592 73.0
593 72.0
594 60.0
595 62.0
596 64.0
597 61.0
598 67.0
599 62.0
600 81.0
601 76.0
602 81.0
603 77.0
604 76.0
605 77.0
606 80.0
607 75.0
608 80.0
609 79.0
610 75.0
611 79.0
612 76.0
613 72.0
614 76.0
615 75.0
616 72.0
617 75.0
618 76.0
619 77.0
620 76.0
621 80.0
622 77.0
623 80.0
624 87.0
625 82.0
626 83.0
627 79.0
628 83.0
629 84.0
630 82.0
631 82.0
632 83.0
633 81.0
634 78.0
635 76.0
636 82.0
637 79.0
638 87.0
639 81.0
640 83.0
641 80.0
642 82.0
643 79.0
644 77.0
645 76.0
646 78.0
647 80.0
648 86.0
649 81.0
650 81.0
651 80.0
652 81.0
653 85.0
654 82.0
655 82.0
656 82.0
657 80.0
658 77.0
659 75.0
660 82.0
661 81.0
662 87.0
663 80.0
664 86.0
665 80.0
666 82.0
667 81.0
668 77.0
669 75.0
670 81.0
671 80.0
672 72.0
673 68.0
674 71.0
675 70.0
676 68.0
677 71.0
678 76.0
679 73.0
680 76.0
681 70.0
682 72.0
683 69.0
684 76.0
685 75.0
686 77.0
687 70.0
688 76.0
689 70.0
690 73.0
691 75.0
692 72.0
693 69.0
694 75.0
695 70.0
696 74.0
697 75.0
698 73.0
699 77.0
700 70.0
701 73.0
702 73.0
703 70.0
704 68.0
705 67.0
706 69.0
707 71.0
708 73.0
709 72.0
710 69.0
711 67.0
712 73.0
713 72.0
714 70.0
715 72.0
716 74.0
717 71.0
718 77.0
719 72.0
720 71.0
721 76.0
722 69.0
723 71.0
724 84.0
725 81.0
726 71.0
727 86.0
728 79.0
729 82.0
730 84.0
731 72.0
732 69.0
733 79.0
734 79.0
735 80.0
736 81.0
737 72.0
738 95.0
739 90.0
740 85.0
741 81.0
742 82.0
743 83.0
744 68.0
745 73.0
746 66.0
747 68.0
748 82.0
749 79.0
750 68.0
751 84.0
752 77.0
753 83.0
754 82.0
755 72.0
756 66.0
757 77.0
758 77.0
759 81.0
760 79.0
761 72.0
762 92.0
763 87.0
764 81.0
765 80.0
766 78.0
767 82.0
768 68.0
769 83.0
770 76.0
771 79.0
772 92.0
773 80.0
774 68.0
775 84.0
776 77.0
777 83.0
778 92.0
779 82.0
780 76.0
781 88.0
782 77.0
783 91.0
784 80.0
785 82.0
786 82.0
787 78.0
788 81.0
789 80.0
790 69.0
791 72.0
792 65.0
793 75.0
794 75.0
795 76.0
796 86.0
797 77.0
798 65.0
799 76.0
800 76.0
801 80.0
802 86.0
803 79.0
804 75.0
805 87.0
806 76.0
807 90.0
808 77.0
809 79.0
810 78.0
811 79.0
812 77.0
813 81.0
814 68.0
815 71.0
816 91.0
817 86.0
818 91.0
819 87.0
820 86.0
821 87.0
822 90.0
823 85.0
824 90.0
825 89.0
826 85.0
827 89.0
828 80.0
829 76.0
830 80.0
831 79.0
832 76.0
833 79.0
834 77.0
835 78.0
836 77.0
837 81.0
838 78.0
839 81.0
840 63.0
841 68.0
842 61.0
843 63.0
844 76.0
845 73.0
846 63.0
847 78.0
848 71.0
849 74.0
850 76.0
851 64.0
852 60.0
853 70.0
854 70.0
855 71.0
856 72.0
857 63.0
858 85.0
859 80.0
860 75.0
861 71.0
862 72.0
863 73.0
864 60.0
865 65.0
866 57.0
867 59.0
868 72.0
869 69.0
870 59.0
871 74.0
872 66.0
873 71.0
874 57.0
875 66.0
876 67.0
877 69.0
878 82.0
879 76.0
880 72.0
881 69.0
882 60.0
883 75.0
884 67.0
885 70.0
886 82.0
887 70.0
888 59.0
889 74.0
890 66.0
891 81.0
892 67.0
893 77.0
894 67.0
895 70.0
896 72.0
897 67.0
898 72.0
899 60.0
900 57.0
901 67.0
902 67.0
903 68.0
904 76.0
905 67.0
906 58.0
907 67.0
908 67.0
909 77.0
910 68.0
911 78.0
912 67.0
913 68.0
914 69.0
915 70.0
916 70.0
917 61.0
918 83.0
919 78.0
920 83.0
921 79.0
922 77.0
923 78.0
924 84.0
925 78.0
926 83.0
927 78.0
928 74.0
929 69.0
930 73.0
931 69.0
932 70.0
933 71.0
934 71.0
935 72.0
936 62.0
937 67.0
938 60.0
939 62.0
940 76.0
941 73.0
942 59.0
943 75.0
944 68.0
945 74.0
946 73.0
947 63.0
948 56.0
949 67.0
950 67.0
951 71.0
952 69.0
953 62.0
954 82.0
955 77.0
956 71.0
957 70.0
958 68.0
959 72.0
960 62.0
961 67.0
962 59.0
963 61.0
964 74.0
965 71.0
966 58.0
967 73.0
968 65.0
969 70.0
970 56.0
971 65.0
972 66.0
973 68.0
974 82.0
975 76.0
976 72.0
977 69.0
978 62.0
979 78.0
980 67.0
981 73.0
982 82.0
983 72.0
984 61.0
985 76.0
986 65.0
987 81.0
988 70.0
989 80.0
990 69.0
991 75.0
992 74.0
993 69.0
994 75.0
995 65.0
996 59.0
997 70.0
998 67.0
999 71.0
1000 76.0
1001 69.0
1002 60.0
1003 69.0
1004 66.0
1005 77.0
1006 71.0
1007 81.0
1008 69.0
1009 73.0
1010 71.0
1011 72.0
1012 73.0
1013 66.0
1014 84.0
1015 79.0
1016 81.0
1017 80.0
1018 75.0
1019 79.0
1020 86.0
1021 80.0
1022 82.0
1023 77.0
1024 75.0
1025 70.0
1026 74.0
1027 73.0
1028 71.0
1029 72.0
1030 72.0
1031 76.0
1032 58.0
1033 73.0
1034 66.0
1035 69.0
1036 82.0
1037 70.0
1038 55.0
1039 71.0
1040 64.0
1041 70.0
1042 79.0
1043 69.0
1044 62.0
1045 74.0
1046 63.0
1047 77.0
1048 66.0
1049 68.0
1050 78.0
1051 74.0
1052 77.0
1053 76.0
1054 65.0
1055 68.0
1056 58.0
1057 73.0
1058 65.0
1059 68.0
1060 80.0
1061 68.0
1062 54.0
1063 69.0
1064 61.0
1065 76.0
1066 62.0
1067 72.0
1068 62.0
1069 65.0
1070 78.0
1071 73.0
1072 78.0
1073 66.0
1074 58.0
1075 74.0
1076 63.0
1077 69.0
1078 78.0
1079 68.0
1080 57.0
1081 72.0
1082 61.0
1083 77.0
1084 66.0
1085 76.0
1086 65.0
1087 71.0
1088 80.0
1089 75.0
1090 81.0
1091 71.0
1092 65.0
1093 77.0
1094 63.0
1095 77.0
1096 73.0
1097 75.0
1098 66.0
1099 76.0
1100 62.0
1101 74.0
1102 67.0
1103 77.0
1104 65.0
1105 79.0
1106 68.0
1107 68.0
1108 70.0
1109 72.0
1110 70.0
1111 66.0
1112 67.0
1113 66.0
1114 62.0
1115 65.0
1116 72.0
1117 67.0
1118 68.0
1119 64.0
1120 71.0
1121 66.0
1122 70.0
1123 69.0
1124 58.0
1125 58.0
1126 59.0
1127 62.0
1128 60.0
1129 70.0
1130 70.0
1131 71.0
1132 81.0
1133 72.0
1134 57.0
1135 68.0
1136 68.0
1137 72.0
1138 78.0
1139 71.0
1140 67.0
1141 79.0
1142 68.0
1143 82.0
1144 69.0
1145 71.0
1146 77.0
1147 78.0
1148 76.0
1149 80.0
1150 67.0
1151 70.0
1152 61.0
1153 71.0
1154 71.0
1155 72.0
1156 80.0
1157 71.0
1158 58.0
1159 67.0
1160 67.0
1161 77.0
1162 68.0
1163 78.0
1164 67.0
1165 68.0
1166 78.0
1167 79.0
1168 79.0
1169 70.0
1170 61.0
1171 72.0
1172 69.0
1173 73.0
1174 78.0
1175 71.0
1176 61.0
1177 70.0
1178 67.0
1179 78.0
1180 72.0
1181 82.0
1182 70.0
1183 74.0
1184 80.0
1185 81.0
1186 82.0
1187 75.0
1188 71.0
1189 83.0
1190 69.0
1191 83.0
1192 79.0
1193 81.0
1194 71.0
1195 81.0
1196 67.0
1197 79.0
1198 72.0
1199 82.0
1200 70.0
1201 84.0
1202 71.0
1203 71.0
1204 73.0
1205 75.0
1206 72.0
1207 73.0
1208 69.0
1209 73.0
1210 70.0
1211 73.0
1212 74.0
1213 75.0
1214 71.0
1215 72.0
1216 73.0
1217 74.0
1218 73.0
1219 77.0
1220 64.0
1221 64.0
1222 64.0
1223 67.0
1224 79.0
1225 74.0
1226 79.0
1227 75.0
1228 74.0
1229 75.0
1230 76.0
1231 71.0
1232 76.0
1233 75.0
1234 71.0
1235 75.0
1236 76.0
1237 72.0
1238 76.0
1239 75.0
1240 72.0
1241 75.0
1242 70.0
1243 71.0
1244 70.0
1245 74.0
1246 71.0
1247 74.0
1248 81.0
1249 76.0
1250 81.0
1251 77.0
1252 75.0
1253 76.0
1254 78.0
1255 72.0
1256 77.0
1257 72.0
1258 78.0
1259 73.0
1260 77.0
1261 73.0
1262 72.0
1263 73.0
1264 73.0
1265 74.0
1266 80.0
1267 75.0
1268 77.0
1269 76.0
1270 71.0
1271 75.0
1272 80.0
1273 74.0
1274 76.0
1275 71.0
1276 80.0
1277 75.0
1278 79.0
1279 78.0
1280 74.0
1281 75.0
1282 75.0
1283 79.0
1284 70.0
1285 66.0
1286 67.0
1287 66.0
1288 62.0
1289 65.0
1290 70.0
1291 65.0
1292 66.0
1293 62.0
1294 70.0
1295 65.0
1296 69.0
1297 68.0
1298 65.0
1299 65.0
1300 66.0
1301 69.0
1302 66.0
1303 67.0
1304 63.0
1305 67.0
1306 64.0
1307 67.0
1308 67.0
1309 68.0
1310 64.0
1311 65.0
1312 67.0
1313 68.0
1314 67.0
1315 71.0
1316 68.0
1317 68.0
1318 68.0
1319 71.0
1320 76.0
1321 81.0
1322 74.0
1323 76.0
1324 89.0
1325 86.0
1326 72.0
1327 87.0
1328 80.0
1329 83.0
1330 85.0
1331 73.0
1332 75.0
1333 85.0
1334 85.0
1335 86.0
1336 87.0
1337 78.0
1338 94.0
1339 89.0
1340 84.0
1341 80.0
1342 81.0
1343 82.0
1344 63.0
1345 68.0
1346 66.0
1347 68.0
1348 75.0
1349 72.0
1350 64.0
1351 73.0
1352 71.0
1353 76.0
1354 62.0
1355 71.0
1356 66.0
1357 68.0
1358 81.0
1359 81.0
1360 77.0
1361 74.0
1362 63.0
1363 78.0
1364 72.0
1365 75.0
1366 81.0
1367 69.0
1368 68.0
1369 77.0
1370 71.0
1371 86.0
1372 76.0
1373 82.0
1374 70.0
1375 73.0
1376 75.0
1377 72.0
1378 81.0
1379 69.0
1380 65.0
1381 75.0
1382 71.0
1383 72.0
1384 80.0
1385 71.0
1386 60.0
1387 69.0
1388 65.0
1389 75.0
1390 70.0
1391 76.0
1392 69.0
1393 70.0
1394 71.0
1395 68.0
1396 72.0
1397 63.0
1398 84.0
1399 79.0
1400 80.0
1401 76.0
1402 80.0
1403 81.0
1404 85.0
1405 85.0
1406 86.0
1407 81.0
1408 75.0
1409 72.0
1410 80.0
1411 76.0
1412 77.0
1413 74.0
1414 72.0
1415 73.0
1416 74.0
1417 79.0
1418 72.0
1419 74.0
1420 87.0
1421 84.0
1422 74.0
1423 89.0
1424 82.0
1425 85.0
1426 87.0
1427 75.0
1428 71.0
1429 81.0
1430 81.0
1431 82.0
1432 83.0
1433 74.0
1434 96.0
1435 91.0
1436 86.0
1437 82.0
1438 83.0
1439 84.0
1440 65.0
1441 70.0
1442 62.0
1443 64.0
1444 77.0
1445 74.0
1446 64.0
1447 79.0
1448 71.0
1449 76.0
1450 62.0
1451 71.0
1452 72.0
1453 74.0
1454 87.0
1455 81.0
1456 77.0
1457 74.0
1458 61.0
1459 76.0
1460 68.0
1461 71.0
1462 83.0
1463 71.0
1464 60.0
1465 75.0
1466 67.0
1467 82.0
1468 68.0
1469 78.0
1470 68.0
1471 71.0
1472 73.0
1473 68.0
1474 73.0
1475 61.0
1476 63.0
1477 73.0
1478 73.0
1479 74.0
1480 82.0
1481 73.0
1482 64.0
1483 73.0
1484 73.0
1485 83.0
1486 74.0
1487 84.0
1488 73.0
1489 74.0
1490 75.0
1491 76.0
1492 76.0
1493 67.0
1494 82.0
1495 77.0
1496 82.0
1497 78.0
1498 76.0
1499 77.0
1500 83.0
1501 77.0
1502 82.0
1503 77.0
1504 73.0
1505 68.0
1506 72.0
1507 68.0
1508 69.0
1509 70.0
1510 70.0
1511 71.0
1512 69.0
1513 74.0
1514 72.0
1515 74.0
1516 81.0
1517 78.0
1518 61.0
1519 70.0
1520 68.0
1521 73.0
1522 58.0
1523 67.0
1524 62.0
1525 64.0
1526 77.0
1527 77.0
1528 73.0
1529 70.0
1530 73.0
1531 78.0
1532 70.0
1533 72.0
1534 85.0
1535 82.0
1536 59.0
1537 74.0
1538 66.0
1539 71.0
1540 62.0
1541 71.0
1542 72.0
1543 74.0
1544 81.0
1545 75.0
1546 71.0
1547 68.0
1548 74.0
1549 83.0
1550 67.0
1551 82.0
1552 68.0
1553 83.0
1554 67.0
1555 76.0
1556 75.0
1557 81.0
1558 86.0
1559 80.0
1560 66.0
1561 75.0
1562 62.0
1563 71.0
1564 72.0
1565 81.0
1566 68.0
1567 77.0
1568 76.0
1569 76.0
1570 78.0
1571 78.0
1572 91.0
1573 91.0
1574 83.0
1575 77.0
1576 91.0
1577 85.0
1578 77.0
1579 77.0
1580 87.0
1581 81.0
1582 78.0
1583 84.0
1584 73.0
1585 88.0
1586 82.0
1587 85.0
1588 91.0
1589 79.0
1590 65.0
1591 74.0
1592 68.0
1593 83.0
1594 72.0
1595 78.0
1596 66.0
1597 69.0
1598 81.0
1599 78.0
1600 87.0
1601 75.0
1602 69.0
1603 84.0
1604 76.0
1605 79.0
1606 91.0
1607 79.0
1608 59.0
1609 74.0
1610 66.0
1611 81.0
1612 68.0
1613 78.0
1614 68.0
1615 71.0
1616 77.0
1617 72.0
1618 77.0
1619 65.0
1620 74.0
1621 83.0
1622 67.0
1623 82.0
1624 72.0
1625 87.0
1626 71.0
1627 80.0
1628 75.0
1629 81.0
1630 96.0
1631 90.0
1632 80.0
1633 86.0
1634 66.0
1635 76.0
1636 82.0
1637 92.0
1638 72.0
1639 78.0
1640 76.0
1641 80.0
1642 83.0
1643 79.0
1644 85.0
1645 82.0
1646 77.0
1647 72.0
1648 81.0
1649 76.0
1650 71.0
1651 68.0
1652 87.0
1653 85.0
1654 73.0
1655 75.0
1656 70.0
1657 80.0
1658 76.0
1659 77.0
1660 85.0
1661 76.0
1662 57.0
1663 66.0
1664 62.0
1665 72.0
1666 67.0
1667 73.0
1668 66.0
1669 67.0
1670 75.0
1671 72.0
1672 76.0
1673 67.0
1674 72.0
1675 82.0
1676 82.0
1677 83.0
1678 91.0
1679 82.0
1680 63.0
1681 72.0
1682 72.0
1683 82.0
1684 69.0
1685 79.0
1686 68.0
1687 69.0
1688 77.0
1689 78.0
1690 78.0
1691 69.0
1692 67.0
1693 76.0
1694 63.0
1695 72.0
1696 71.0
1697 80.0
1698 67.0
1699 76.0
1700 76.0
1701 76.0
1702 86.0
1703 86.0
1704 81.0
1705 87.0
1706 67.0
1707 77.0
1708 77.0
1709 87.0
1710 67.0
1711 73.0
1712 76.0
1713 80.0
1714 81.0
1715 77.0
1716 82.0
1717 79.0
1718 69.0
1719 70.0
1720 78.0
1721 79.0
1722 69.0
1723 66.0
1724 79.0
1725 83.0
1726 74.0
1727 70.0
1728 96.0
1729 91.0
1730 92.0
1731 88.0
1732 92.0
1733 93.0
1734 83.0
1735 83.0
1736 84.0
1737 79.0
1738 83.0
1739 80.0
1740 88.0
1741 84.0
1742 82.0
1743 79.0
1744 77.0
1745 78.0
1746 92.0
1747 87.0
1748 92.0
1749 88.0
1750 86.0
1751 87.0
1752 83.0
1753 77.0
1754 82.0
1755 77.0
1756 79.0
1757 74.0
1758 78.0
1759 74.0
1760 78.0
1761 79.0
1762 79.0
1763 80.0
1764 93.0
1765 93.0
1766 85.0
1767 79.0
1768 97.0
1769 91.0
1770 83.0
1771 83.0
1772 98.0
1773 92.0
1774 87.0
1775 93.0
1776 87.0
1777 84.0
1778 79.0
1779 74.0
1780 83.0
1781 78.0
1782 73.0
1783 70.0
1784 88.0
1785 86.0
1786 82.0
1787 84.0
1788 83.0
1789 80.0
1790 70.0
1791 71.0
1792 85.0
1793 86.0
1794 76.0
1795 73.0
1796 80.0
1797 84.0
1798 85.0
1799 81.0
1800 71.0
1801 76.0
1802 69.0
1803 71.0
1804 85.0
1805 82.0
1806 66.0
1807 82.0
1808 75.0
1809 80.0
1810 69.0
1811 80.0
1812 80.0
1813 82.0
1814 89.0
1815 84.0
1816 78.0
1817 75.0
1818 61.0
1819 66.0
1820 64.0
1821 66.0
1822 73.0
1823 70.0
1824 61.0
1825 70.0
1826 68.0
1827 73.0
1828 59.0
1829 68.0
1830 63.0
1831 65.0
1832 79.0
1833 79.0
1834 75.0
1835 72.0
1836 58.0
1837 74.0
1838 67.0
1839 76.0
1840 63.0
1841 72.0
1842 65.0
1843 81.0
1844 72.0
1845 65.0
1846 70.0
1847 77.0
1848 60.0
1849 71.0
1850 66.0
1851 75.0
1852 55.0
1853 64.0
1854 59.0
1855 70.0
1856 66.0
1857 64.0
1858 66.0
1859 68.0
1860 79.0
1861 74.0
1862 74.0
1863 74.0
1864 81.0
1865 81.0
1866 81.0
1867 76.0
1868 70.0
1869 75.0
1870 72.0
1871 67.0
1872 73.0
1873 78.0
1874 71.0
1875 73.0
1876 87.0
1877 84.0
1878 70.0
1879 86.0
1880 79.0
1881 84.0
1882 67.0
1883 78.0
1884 78.0
1885 80.0
1886 93.0
1887 88.0
1888 82.0
1889 79.0
1890 65.0
1891 70.0
1892 62.0
1893 64.0
1894 77.0
1895 74.0
1896 61.0
1897 76.0
1898 68.0
1899 73.0
1900 59.0
1901 68.0
1902 69.0
1903 71.0
1904 85.0
1905 79.0
1906 75.0
1907 72.0
1908 60.0
1909 76.0
1910 65.0
1911 80.0
1912 59.0
1913 74.0
1914 63.0
1915 79.0
1916 68.0
1917 67.0
1918 72.0
1919 73.0
1920 62.0
1921 73.0
1922 70.0
1923 79.0
1924 63.0
1925 72.0
1926 69.0
1927 80.0
1928 74.0
1929 72.0
1930 74.0
1931 76.0
1932 81.0
1933 76.0
1934 78.0
1935 72.0
1936 83.0
1937 77.0
1938 79.0
1939 74.0
1940 72.0
1941 71.0
1942 68.0
1943 69.0
1944 69.0
1945 74.0
1946 72.0
1947 74.0
1948 81.0
1949 78.0
1950 61.0
1951 70.0
1952 68.0
1953 73.0
1954 58.0
1955 67.0
1956 62.0
1957 64.0
1958 77.0
1959 77.0
1960 73.0
1961 70.0
1962 71.0
1963 76.0
1964 68.0
1965 70.0
1966 83.0
1967 80.0
1968 57.0
1969 72.0
1970 64.0
1971 69.0
1972 60.0
1973 69.0
1974 70.0
1975 72.0
1976 79.0
1977 73.0
1978 69.0
1979 66.0
1980 71.0
1981 80.0
1982 64.0
1983 79.0
1984 65.0
1985 80.0
1986 64.0
1987 73.0
1988 72.0
1989 78.0
1990 83.0
1991 77.0
1992 63.0
1993 72.0
1994 59.0
1995 68.0
1996 69.0
1997 78.0
1998 65.0
1999 74.0
2000 73.0
2001 73.0
2002 75.0
2003 75.0
2004 89.0
2005 89.0
2006 81.0
2007 75.0
2008 89.0
2009 83.0
2010 75.0
2011 75.0
2012 85.0
2013 79.0
2014 76.0
2015 82.0
2016 71.0
2017 87.0
2018 80.0
2019 89.0
2020 66.0
2021 75.0
2022 68.0
2023 84.0
2024 71.0
2025 64.0
2026 79.0
2027 86.0
2028 69.0
2029 85.0
2030 74.0
2031 89.0
2032 60.0
2033 75.0
2034 64.0
2035 80.0
2036 69.0
2037 68.0
2038 77.0
2039 78.0
2040 74.0
2041 83.0
2042 67.0
2043 82.0
2044 70.0
2045 85.0
2046 69.0
2047 78.0
2048 72.0
2049 78.0
2050 94.0
2051 88.0
2052 79.0
2053 67.0
2054 83.0
2055 73.0
2056 76.0
2057 78.0
2058 83.0
2059 78.0
2060 81.0
2061 72.0
2062 88.0
2063 84.0
2064 68.0
2065 79.0
2066 74.0
2067 83.0
2068 58.0
2069 67.0
2070 62.0
2071 73.0
2072 66.0
2073 64.0
2074 73.0
2075 75.0
2076 72.0
2077 83.0
2078 80.0
2079 89.0
2080 64.0
2081 73.0
2082 70.0
2083 81.0
2084 70.0
2085 68.0
2086 77.0
2087 79.0
2088 67.0
2089 76.0
2090 63.0
2091 72.0
2092 69.0
2093 78.0
2094 65.0
2095 74.0
2096 73.0
2097 73.0
2098 84.0
2099 84.0
2100 80.0
2101 68.0
2102 78.0
2103 68.0
2104 76.0
2105 78.0
2106 80.0
2107 70.0
2108 78.0
2109 70.0
2110 80.0
2111 82.0
2112 93.0
2113 88.0
2114 88.0
2115 88.0
2116 83.0
2117 83.0
2118 83.0
2119 78.0
2120 80.0
2121 85.0
2122 79.0
2123 74.0
2124 91.0
2125 86.0
2126 88.0
2127 82.0
2128 83.0
2129 77.0
2130 79.0
2131 74.0
2132 78.0
2133 77.0
2134 77.0
2135 78.0
2136 93.0
2137 93.0
2138 85.0
2139 79.0
2140 95.0
2141 89.0
2142 81.0
2143 81.0
2144 95.0
2145 89.0
2146 84.0
2147 90.0
2148 84.0
2149 79.0
2150 82.0
2151 73.0
2152 87.0
2153 83.0
2154 80.0
2155 70.0
2156 84.0
2157 76.0
2158 79.0
2159 81.0
2160 70.0
2161 85.0
2162 78.0
2163 94.0
2164 69.0
2165 85.0
2166 78.0
2167 93.0
2168 78.0
2169 79.0
2170 88.0
2171 87.0
2172 64.0
2173 79.0
2174 73.0
2175 82.0
2176 64.0
2177 73.0
2178 67.0
2179 82.0
2180 72.0
2181 66.0
2182 82.0
2183 88.0
2184 61.0
2185 77.0
2186 70.0
2187 79.0
2188 62.0
2189 71.0
2190 64.0
2191 80.0
2192 71.0
2193 64.0
2194 79.0
2195 86.0
2196 69.0
2197 69.0
2198 68.0
2199 62.0
2200 69.0
2201 63.0
2202 78.0
2203 77.0
2204 84.0
2205 84.0
2206 83.0
2207 84.0
2208 68.0
2209 83.0
2210 76.0
2211 92.0
2212 65.0
2213 81.0
2214 74.0
2215 89.0
2216 72.0
2217 73.0
2218 88.0
2219 87.0
2220 60.0
2221 75.0
2222 67.0
2223 82.0
2224 56.0
2225 71.0
2226 63.0
2227 78.0
2228 64.0
2229 64.0
2230 80.0
2231 80.0
2232 59.0
2233 75.0
2234 64.0
2235 79.0
2236 58.0
2237 73.0
2238 62.0
2239 78.0
2240 67.0
2241 66.0
2242 81.0
2243 82.0
2244 67.0
2245 65.0
2246 68.0
2247 64.0
2248 69.0
2249 67.0
2250 76.0
2251 73.0
2252 78.0
2253 74.0
2254 77.0
2255 76.0
2256 72.0
2257 87.0
2258 81.0
2259 90.0
2260 64.0
2261 73.0
2262 67.0
2263 82.0
2264 71.0
2265 65.0
2266 80.0
2267 86.0
2268 70.0
2269 85.0
2270 77.0
2271 92.0
2272 60.0
2273 75.0
2274 67.0
2275 82.0
2276 69.0
2277 69.0
2278 78.0
2279 78.0
2280 70.0
2281 79.0
2282 63.0
2283 78.0
2284 68.0
2285 83.0
2286 67.0
2287 76.0
2288 71.0
2289 77.0
2290 92.0
2291 86.0
2292 76.0
2293 62.0
2294 78.0
2295 68.0
2296 72.0
2297 76.0
2298 92.0
2299 84.0
2300 88.0
2301 78.0
2302 94.0
2303 92.0
2304 70.0
2305 86.0
2306 79.0
2307 88.0
2308 65.0
2309 74.0
2310 67.0
2311 83.0
2312 70.0
2313 63.0
2314 78.0
2315 85.0
2316 72.0
2317 88.0
2318 77.0
2319 92.0
2320 63.0
2321 78.0
2322 67.0
2323 83.0
2324 72.0
2325 71.0
2326 80.0
2327 81.0
2328 73.0
2329 82.0
2330 66.0
2331 81.0
2332 69.0
2333 84.0
2334 68.0
2335 77.0
2336 71.0
2337 77.0
2338 93.0
2339 87.0
2340 78.0
2341 66.0
2342 82.0
2343 72.0
2344 75.0
2345 77.0
2346 92.0
2347 87.0
2348 90.0
2349 81.0
2350 97.0
2351 93.0
2352 77.0
2353 77.0
2354 71.0
2355 65.0
2356 69.0
2357 63.0
2358 81.0
2359 79.0
2360 73.0
2361 69.0
2362 73.0
2363 71.0
2364 80.0
2365 66.0
2366 78.0
2367 68.0
2368 72.0
2369 76.0
2370 79.0
2371 67.0
2372 81.0
2373 71.0
2374 75.0
2375 77.0
2376 82.0
2377 81.0
2378 76.0
2379 76.0
2380 73.0
2381 74.0
2382 80.0
2383 77.0
2384 72.0
2385 68.0
2386 71.0
2387 70.0
2388 86.0
2389 78.0
2390 84.0
2391 74.0
2392 84.0
2393 82.0
2394 83.0
2395 78.0
2396 85.0
2397 76.0
2398 86.0
2399 82.0
2400 72.0
2401 82.0
2402 71.0
2403 82.0
2404 77.0
2405 78.0
2406 66.0
2407 72.0
2408 61.0
2409 66.0
2410 71.0
2411 70.0
2412 63.0
2413 69.0
2414 59.0
2415 63.0
2416 70.0
2417 68.0
2418 69.0
2419 69.0
2420 73.0
2421 67.0
2422 74.0
2423 68.0
2424 76.0
2425 86.0
2426 73.0
2427 84.0
2428 83.0
2429 84.0
2430 68.0
2431 78.0
2432 65.0
2433 74.0
2434 75.0
2435 74.0
2436 67.0
2437 75.0
2438 67.0
2439 73.0
2440 78.0
2441 76.0
2442 73.0
2443 71.0
2444 73.0
2445 69.0
2446 74.0
2447 72.0
2448 75.0
2449 81.0
2450 62.0
2451 67.0
2452 72.0
2453 71.0
2454 73.0
2455 83.0
2456 64.0
2457 73.0
2458 70.0
2459 69.0
2460 68.0
2461 64.0
2462 72.0
2463 68.0
2464 77.0
2465 77.0
2466 82.0
2467 68.0
2468 78.0
2469 68.0
2470 77.0
2471 81.0
2472 73.0
2473 79.0
2474 63.0
2475 67.0
2476 71.0
2477 69.0
2478 75.0
2479 83.0
2480 67.0
2481 73.0
2482 73.0
2483 71.0
2484 71.0
2485 67.0
2486 73.0
2487 69.0
2488 77.0
2489 77.0
2490 84.0
2491 72.0
2492 82.0
2493 72.0
2494 80.0
2495 82.0
2496 83.0
2497 83.0
2498 77.0
2499 71.0
2500 75.0
2501 69.0
2502 81.0
2503 79.0
2504 73.0
2505 69.0
2506 73.0
2507 71.0
2508 85.0
2509 71.0
2510 83.0
2511 73.0
2512 77.0
2513 81.0
2514 84.0
2515 72.0
2516 86.0
2517 76.0
2518 80.0
2519 82.0
